; ISZERO ISZERO PUSH 0x01 EQ DUP1 ISZERO => ISZERO DUP1 ISZERO SWAP1
(set-option :produce-proofs true)
; 
(set-info :status unknown)
(declare-fun storage_t ((_ BitVec 256) Int (_ BitVec 256)) (_ BitVec 256))
(declare-fun storage_s ((_ BitVec 256) Int (_ BitVec 256)) (_ BitVec 256))
(declare-fun exc_halt_t (Int) Bool)
(declare-fun exc_halt_s (Int) Bool)
(declare-fun stack_t ((_ BitVec 256) Int (_ BitVec 6)) (_ BitVec 256))
(declare-fun stack_s ((_ BitVec 256) Int (_ BitVec 6)) (_ BitVec 256))
(declare-fun sc_t (Int) (_ BitVec 6))
(declare-fun sc_s (Int) (_ BitVec 6))
(declare-fun used_gas_t ((_ BitVec 256) Int) Int)
(declare-fun used_gas_s ((_ BitVec 256) Int) Int)
(assert
 (exists ((x_0 (_ BitVec 256)) )(let (($x1381 (forall ((w (_ BitVec 256)) )(let ((?x1886 (storage_t x_0 4 w)))
 (let ((?x11372 (storage_s x_0 6 w)))
 (= ?x11372 ?x1886))))
 ))
 (let (($x7854 (exc_halt_t 4)))
 (let (($x772 (exc_halt_s 6)))
 (let (($x4404 (= $x772 $x7854)))
 (let (($x1062 (forall ((n (_ BitVec 6)) )(let ((?x436 (stack_t x_0 4 n)))
 (let ((?x5590 (stack_s x_0 6 n)))
 (let (($x8153 (= ?x5590 ?x436)))
 (let ((?x4818 (sc_t 4)))
 (let (($x1999 (bvsle ?x4818 n)))
 (or $x1999 $x8153)))))))
 ))
 (let ((?x4818 (sc_t 4)))
 (let ((?x926 (sc_s 6)))
 (let (($x7899 (= ?x926 ?x4818)))
 (let ((?x2592 (used_gas_t x_0 0)))
 (let ((?x8999 (used_gas_s x_0 0)))
 (let (($x10244 (= ?x8999 ?x2592)))
 (let (($x1206 (forall ((w (_ BitVec 256)) )(let ((?x5864 (storage_t x_0 0 w)))
 (let ((?x844 (storage_s x_0 0 w)))
 (= ?x844 ?x5864))))
 ))
 (let (($x56 (exc_halt_t 0)))
 (let (($x57 (exc_halt_s 0)))
 (let (($x58 (= $x57 $x56)))
 (let (($x11232 (forall ((n (_ BitVec 6)) )(let ((?x9365 (stack_t x_0 0 n)))
 (let ((?x1202 (stack_s x_0 0 n)))
 (let (($x11059 (= ?x1202 ?x9365)))
 (let ((?x63 (sc_t 0)))
 (let (($x1710 (bvsle ?x63 n)))
 (or $x1710 $x11059)))))))
 ))
 (let ((?x63 (sc_t 0)))
 (let ((?x72 (sc_s 0)))
 (let (($x73 (= ?x72 ?x63)))
 (let (($x7977 (= $x7854 (or (exc_halt_t 3) (not (bvsle (_ bv0 6) (bvadd (_ bv62 6) (sc_t 3))))))))
 (let (($x9113 (forall ((w (_ BitVec 256)) )(let ((?x4257 (storage_t x_0 3 w)))
 (let ((?x1886 (storage_t x_0 4 w)))
 (= ?x1886 ?x4257))))
 ))
 (let (($x11099 (forall ((n (_ BitVec 6)) )(let ((?x6438 (sc_t 3)))
 (let ((?x10981 (bvadd (_ bv62 6) ?x6438)))
 (let (($x1812 (bvsle ?x10981 n)))
 (or $x1812 (= (stack_t x_0 4 n) (stack_t x_0 3 n)))))))
 ))
 (let ((?x6438 (sc_t 3)))
 (let ((?x9047 (bvadd (_ bv63 6) ?x6438)))
 (let ((?x6472 (stack_t x_0 3 ?x9047)))
 (let (($x8816 (= (stack_t x_0 4 (bvadd (_ bv63 6) ?x4818)) (stack_t x_0 3 (bvadd (_ bv62 6) ?x6438)))))
 (let (($x6783 (exc_halt_t 3)))
 (let (($x5742 (= $x6783 (or (exc_halt_t 2) (not (bvsle (_ bv0 6) (bvadd (_ bv63 6) (sc_t 2))))))))
 (let (($x9234 (forall ((w (_ BitVec 256)) )(let ((?x8613 (storage_t x_0 2 w)))
 (let ((?x4257 (storage_t x_0 3 w)))
 (= ?x4257 ?x8613))))
 ))
 (let (($x8701 (forall ((n (_ BitVec 6)) )(or (bvsle (bvadd (_ bv63 6) (sc_t 2)) n) (= (stack_t x_0 3 n) (stack_t x_0 2 n))))
 ))
 (let ((?x9333 (ite (= (stack_t x_0 2 (bvadd (_ bv63 6) (sc_t 2))) (_ bv0 256)) (_ bv1 256) (_ bv0 256))))
 (let (($x8377 (exc_halt_t 1)))
 (let (($x3501 (not (bvsle (_ bv0 6) (bvadd (_ bv63 6) (sc_t 1))))))
 (let (($x9735 (or (not (= ((_ extract 6 6) (bvadd (_ bv1 7) (concat (_ bv0 1) (sc_t 1)))) (_ bv0 1))) $x3501 $x8377)))
 (let (($x2163 (exc_halt_t 2)))
 (let (($x10095 (forall ((w (_ BitVec 256)) )(let ((?x6635 (storage_t x_0 1 w)))
 (let ((?x8613 (storage_t x_0 2 w)))
 (= ?x8613 ?x6635))))
 ))
 (let (($x2691 (forall ((n (_ BitVec 6)) )(let ((?x7154 (sc_t 1)))
 (let ((?x2642 (bvadd (_ bv63 6) ?x7154)))
 (let (($x10768 (bvsle ?x2642 n)))
 (or (= (stack_t x_0 2 n) (stack_t x_0 1 n)) $x10768)))))
 ))
 (let ((?x7154 (sc_t 1)))
 (let ((?x2642 (bvadd (_ bv63 6) ?x7154)))
 (let ((?x10396 (stack_t x_0 1 ?x2642)))
 (let (($x2593 (forall ((w (_ BitVec 256)) )(let ((?x5864 (storage_t x_0 0 w)))
 (let ((?x6635 (storage_t x_0 1 w)))
 (= ?x6635 ?x5864))))
 ))
 (let (($x5043 (forall ((n (_ BitVec 6)) )(or (= (stack_t x_0 1 n) (stack_t x_0 0 n)) (bvsle (bvadd (_ bv63 6) (sc_t 0)) n)))
 ))
 (let (($x6103 (= ?x7154 ?x63)))
 (let (($x2644 (= ?x10396 (ite (= (stack_t x_0 0 (bvadd (_ bv63 6) ?x63)) (_ bv0 256)) (_ bv1 256) (_ bv0 256)))))
 (let (($x9810 (= $x772 (or (exc_halt_s 5) (not (bvsle (_ bv0 6) (bvadd (_ bv63 6) (sc_s 5))))))))
 (let (($x9642 (forall ((w (_ BitVec 256)) )(let ((?x10243 (storage_s x_0 5 w)))
 (let ((?x11372 (storage_s x_0 6 w)))
 (= ?x11372 ?x10243))))
 ))
 (let (($x6080 (forall ((n (_ BitVec 6)) )(let ((?x4319 (sc_s 5)))
 (let ((?x10316 (bvadd (_ bv63 6) ?x4319)))
 (let (($x6716 (bvsle ?x10316 n)))
 (or $x6716 (= (stack_s x_0 6 n) (stack_s x_0 5 n)))))))
 ))
 (let ((?x4319 (sc_s 5)))
 (let (($x7310 (= ?x926 ?x4319)))
 (let (($x6272 (= (stack_s x_0 6 (bvadd (_ bv63 6) ?x926)) (ite (= (stack_s x_0 5 (bvadd (_ bv63 6) ?x4319)) (_ bv0 256)) (_ bv1 256) (_ bv0 256)))))
 (let (($x10381 (not (= ((_ extract 6 6) (bvadd (_ bv1 7) (concat (_ bv0 1) (sc_s 4)))) (_ bv0 1)))))
 (let (($x7172 (exc_halt_s 4)))
 (let (($x4108 (not (bvsle (_ bv0 6) (bvadd (_ bv63 6) (sc_s 4))))))
 (let (($x11317 (exc_halt_s 5)))
 (let (($x4893 (forall ((w (_ BitVec 256)) )(let ((?x6725 (storage_s x_0 4 w)))
 (let ((?x10243 (storage_s x_0 5 w)))
 (= ?x10243 ?x6725))))
 ))
 (let (($x11245 (forall ((n (_ BitVec 6)) )(let ((?x4305 (sc_s 4)))
 (let ((?x5156 (bvadd (_ bv63 6) ?x4305)))
 (let (($x4858 (bvsle ?x5156 n)))
 (or (= (stack_s x_0 5 n) (stack_s x_0 4 n)) $x4858)))))
 ))
 (let (($x5228 (= ?x4319 (bvadd (_ bv1 6) (sc_s 4)))))
 (let ((?x4305 (sc_s 4)))
 (let ((?x5156 (bvadd (_ bv63 6) ?x4305)))
 (let ((?x9881 (stack_s x_0 4 ?x5156)))
 (let (($x976 (= $x7172 (or (exc_halt_s 3) (not (bvsle (_ bv0 6) (bvadd (_ bv62 6) (sc_s 3))))))))
 (let (($x9840 (forall ((w (_ BitVec 256)) )(let ((?x4508 (storage_s x_0 3 w)))
 (let ((?x6725 (storage_s x_0 4 w)))
 (= ?x6725 ?x4508))))
 ))
 (let (($x6869 (forall ((n (_ BitVec 6)) )(let ((?x275 (sc_s 3)))
 (let ((?x3946 (bvadd (_ bv62 6) ?x275)))
 (let (($x7436 (bvsle ?x3946 n)))
 (or (= (stack_s x_0 4 n) (stack_s x_0 3 n)) $x7436)))))
 ))
 (let ((?x275 (sc_s 3)))
 (let ((?x4768 (bvadd (_ bv63 6) ?x275)))
 (let (($x6997 (= ?x4305 ?x4768)))
 (let ((?x9832 (ite (= (stack_s x_0 3 ?x4768) (stack_s x_0 3 (bvadd (_ bv62 6) ?x275))) (_ bv1 256) (_ bv0 256))))
 (let (($x11174 (not (= ((_ extract 6 6) (bvadd (_ bv1 7) (concat (_ bv0 1) (sc_s 2)))) (_ bv0 1)))))
 (let (($x247 (exc_halt_s 2)))
 (let (($x292 (exc_halt_s 3)))
 (let (($x6219 (= $x292 (or $x247 $x11174))))
 (let (($x5344 (forall ((w (_ BitVec 256)) )(let ((?x7201 (storage_s x_0 2 w)))
 (let ((?x4508 (storage_s x_0 3 w)))
 (= ?x4508 ?x7201))))
 ))
 (let (($x10418 (forall ((n (_ BitVec 6)) )(let ((?x218 (sc_s 2)))
 (let (($x42 (bvsle ?x218 n)))
 (or $x42 (= (stack_s x_0 3 n) (stack_s x_0 2 n))))))
 ))
 (let (($x11187 (= ?x275 (bvadd (_ bv1 6) (sc_s 2)))))
 (let (($x9279 (= $x247 (or (exc_halt_s 1) (not (bvsle (_ bv0 6) (bvadd (_ bv63 6) (sc_s 1))))))))
 (let (($x5904 (forall ((w (_ BitVec 256)) )(let ((?x5708 (storage_s x_0 1 w)))
 (let ((?x7201 (storage_s x_0 2 w)))
 (= ?x7201 ?x5708))))
 ))
 (let (($x10618 (forall ((n (_ BitVec 6)) )(or (= (stack_s x_0 2 n) (stack_s x_0 1 n)) (bvsle (bvadd (_ bv63 6) (sc_s 1)) n)))
 ))
 (let ((?x4770 (ite (= (stack_s x_0 1 (bvadd (_ bv63 6) (sc_s 1))) (_ bv0 256)) (_ bv1 256) (_ bv0 256))))
 (let (($x904 (forall ((w (_ BitVec 256)) )(let ((?x844 (storage_s x_0 0 w)))
 (let ((?x5708 (storage_s x_0 1 w)))
 (= ?x5708 ?x844))))
 ))
 (let (($x11783 (forall ((n (_ BitVec 6)) )(let ((?x72 (sc_s 0)))
 (let ((?x4777 (bvadd (_ bv63 6) ?x72)))
 (let (($x2609 (bvsle ?x4777 n)))
 (or $x2609 (= (stack_s x_0 1 n) (stack_s x_0 0 n)))))))
 ))
 (let ((?x154 (sc_s 1)))
 (let (($x2569 (= ?x154 ?x72)))
 (let ((?x3500 (bvadd (_ bv63 6) ?x154)))
 (let ((?x7200 (stack_s x_0 1 ?x3500)))
 (let (($x1693 (= ?x7200 (ite (= (stack_s x_0 0 (bvadd (_ bv63 6) ?x72)) (_ bv0 256)) (_ bv1 256) (_ bv0 256)))))
 (let (($x10651 (forall ((w (_ BitVec 256)) )(let ((?x844 (storage_s x_0 0 w)))
 (= ?x844 (_ bv0 256))))
 ))
 (let (($x2042 (= ?x8999 0)))
 (let (($x1892 (not $x57)))
 (let (($x4551 (= (stack_s x_0 0 (_ bv0 6)) x_0)))
 (let (($x7865 (= ?x72 (_ bv1 6))))
 (and $x7865 $x4551 $x1892 $x2042 $x10651 $x1693 (= (used_gas_s x_0 1) (+ 3 ?x8999)) $x2569 $x11783 $x904 (= (exc_halt_s 1) (or $x57 (not (bvsle (_ bv0 6) (bvadd (_ bv63 6) ?x72))))) (= (stack_s x_0 2 (bvadd (_ bv63 6) (sc_s 2))) ?x4770) (= (used_gas_s x_0 2) (+ 3 (used_gas_s x_0 1))) (= (sc_s 2) ?x154) $x10618 $x5904 $x9279 (= (stack_s x_0 3 (sc_s 2)) (_ bv1 256)) (= (used_gas_s x_0 3) (+ 3 (used_gas_s x_0 2))) $x11187 $x10418 $x5344 $x6219 (= ?x9881 ?x9832) (= (used_gas_s x_0 4) (+ 3 (used_gas_s x_0 3))) $x6997 $x6869 $x9840 $x976 (= (stack_s x_0 5 (bvadd (_ bv63 6) ?x4319)) ?x9881) (= (stack_s x_0 5 ?x5156) ?x9881) (= (used_gas_s x_0 5) (+ 3 (used_gas_s x_0 4))) $x5228 $x11245 $x4893 (= $x11317 (or $x4108 $x7172 $x10381)) $x6272 (= (used_gas_s x_0 6) (+ 3 (used_gas_s x_0 5))) $x7310 $x6080 $x9642 $x9810 $x2644 (= (used_gas_t x_0 1) (+ 3 ?x2592)) $x6103 $x5043 $x2593 (= $x8377 (or $x56 (not (bvsle (_ bv0 6) (bvadd (_ bv63 6) ?x63))))) (= (stack_t x_0 2 (bvadd (_ bv63 6) (sc_t 2))) ?x10396) (= (stack_t x_0 2 ?x2642) ?x10396) (= (used_gas_t x_0 2) (+ 3 (used_gas_t x_0 1))) (= (sc_t 2) (bvadd (_ bv1 6) ?x7154)) $x2691 $x10095 (= $x2163 $x9735) (= ?x6472 ?x9333) (= (used_gas_t x_0 3) (+ 3 (used_gas_t x_0 2))) (= ?x6438 (sc_t 2)) $x8701 $x9234 $x5742 $x8816 (= (stack_t x_0 4 (bvadd (_ bv62 6) ?x4818)) ?x6472) (= (used_gas_t x_0 4) (+ 3 (used_gas_t x_0 3))) (= ?x4818 ?x6438) $x11099 $x9113 $x7977 $x73 $x11232 $x58 $x1206 $x10244 (not (and $x7899 $x1062 $x4404 $x1381))))))))))))))))))))))))))))))))))))))))))))))))))))))))))))))))))))))))))))))))))))))))))))))
 )
(check-sat)
(get-proof)
